NAME mip1
OBJSENSE MAX
ROWS
 N  OBJ
 L  c0      
 G  c1      
COLUMNS
    MARKER    'MARKER'                 'INTORG'
    x         OBJ       1
    x         c0        1
    x         c1        1
    y         OBJ       1
    y         c0        2
    y         c1        1
    z         OBJ       2
    z         c0        3
    MARKER    'MARKER'                 'INTEND'
RHS
    RHS1      c0        40
    RHS1      c1        1
BOUNDS
 BV BND1      x       
 BV BND1      y       
 BV BND1      z       
ENDATA
